(declare-fun a_ack!4675 () (_ BitVec 32))
(declare-fun b_ack!4673 () (_ BitVec 32))
(declare-fun c_ack!4674 () (_ BitVec 64))
(declare-fun FPCHECK_FMUL_OVERFLOW ((_ BitVec 64) (_ FloatingPoint 11 53)) Bool)
(declare-fun CF_exp ((_ FloatingPoint 11 53)) (_ FloatingPoint 11 53))
(assert (not (bvslt a_ack!4675 #x00000000)))
(assert (not (bvslt b_ack!4673 a_ack!4675)))
(assert (not (fp.leq ((_ to_fp 11 53) c_ack!4674) ((_ to_fp 11 53) #x0000000000000000))))
(assert (not (= #x00000000 b_ack!4673)))
(assert (not (fp.leq ((_ to_fp 11 53) c_ack!4674) ((_ to_fp 11 53) #x0000000000000000))))
(assert (not (fp.leq ((_ to_fp 11 53) c_ack!4674) ((_ to_fp 11 53) #x0000000000000000))))
(assert (not (fp.lt ((_ to_fp 11 53) c_ack!4674) ((_ to_fp 11 53) #x3ff0000000000000))))
(assert (not (fp.leq ((_ to_fp 11 53) c_ack!4674) ((_ to_fp 11 53) #x4020000000000000))))
(assert (not (fp.leq ((_ to_fp 11 53) c_ack!4674) ((_ to_fp 11 53) #x0000000000000000))))
(assert (not (fp.leq ((_ to_fp 11 53) c_ack!4674) ((_ to_fp 11 53) #x0000000000000000))))
(assert (not (fp.lt ((_ to_fp 11 53) c_ack!4674) ((_ to_fp 11 53) #x0020000000000000))))
(assert (not (fp.lt ((_ to_fp 11 53) c_ack!4674) ((_ to_fp 11 53) #x3ff0000000000000))))
(assert (not (fp.leq ((_ to_fp 11 53) c_ack!4674) ((_ to_fp 11 53) #x4020000000000000))))
(assert (not (bvsle (bvadd #x00000001 a_ack!4675) (bvadd #x00000001 b_ack!4673))))
(assert (bvsle #x00000000 (bvsub b_ack!4673 a_ack!4675)))
(assert (bvsle #x00000001 (bvsub b_ack!4673 a_ack!4675)))
(assert (bvsle #x00000002 (bvsub b_ack!4673 a_ack!4675)))
(assert (FPCHECK_FMUL_OVERFLOW
  #x0000000000000000
  (CF_exp (fp.sub roundNearestTiesToEven
                  ((_ to_fp 11 53) #x8000000000000000)
                  ((_ to_fp 11 53) c_ack!4674)))))

(check-sat)
(exit)
